c preprocessed version of BrouwerHaemersGraph, 81 vertices, 810 edges
p td 81 810
0 2
0 3
0 4
0 7
0 11
0 13
0 14
0 17
0 25
0 26
0 28
0 29
0 30
0 40
0 54
0 55
0 58
0 59
0 60
0 70
1 3
1 5
1 8
1 10
1 13
1 15
1 18
1 24
1 26
1 27
1 29
1 31
1 41
1 53
1 55
1 57
1 59
1 61
1 71
1 80
2 10
2 13
2 15
2 18
2 21
2 33
2 36
2 37
2 39
2 41
2 51
2 63
2 65
2 66
2 69
2 71
3 10
3 11
3 16
3 19
3 22
3 33
3 35
3 37
3 38
3 42
3 52
3 63
3 64
3 66
3 68
3 72
4 10
4 15
4 16
4 17
4 24
4 31
4 32
4 38
4 39
4 43
4 53
4 61
4 62
4 68
4 69
4 73
5 11
5 14
5 16
5 18
5 25
5 30
5 32
5 37
5 39
5 44
5 54
5 60
5 62
5 66
5 69
5 74
6 13
6 14
6 15
6 19
6 26
6 30
6 31
6 37
6 38
6 46
6 55
6 60
6 61
6 66
6 68
6 75
7 10
7 14
7 18
7 19
7 27
7 31
7 32
7 35
7 36
7 47
7 57
7 61
7 62
7 64
7 65
7 76
8 11
8 15
8 17
8 19
8 28
8 30
8 32
8 33
8 36
8 48
8 58
8 60
8 62
8 63
8 65
8 77
9 13
9 16
9 17
9 18
9 29
9 30
9 31
9 33
9 35
9 49
9 59
9 60
9 61
9 63
9 64
9 79
10 20
10 30
10 44
10 46
10 48
10 49
10 50
10 60
10 74
10 75
10 77
10 79
11 21
11 31
11 43
11 46
11 47
11 49
11 51
11 61
11 73
11 75
11 76
11 79
12 2
12 6
12 9
12 10
12 11
12 16
12 19
12 24
12 25
12 27
12 28
12 32
12 42
12 53
12 54
12 57
12 58
12 62
12 72
12 80
13 22
13 32
13 43
13 44
13 47
13 48
13 52
13 62
13 73
13 74
13 76
13 77
14 24
14 33
14 41
14 42
14 48
14 49
14 53
14 63
14 71
14 72
14 77
14 79
15 25
15 35
15 40
15 42
15 47
15 49
15 54
15 64
15 70
15 72
15 76
15 79
16 26
16 36
16 40
16 41
16 47
16 48
16 55
16 65
16 70
16 71
16 76
16 77
17 27
17 37
17 41
17 42
17 44
17 46
17 57
17 66
17 71
17 72
17 74
17 75
18 28
18 38
18 40
18 42
18 43
18 46
18 58
18 68
18 70
18 72
18 73
18 75
19 29
19 39
19 40
19 41
19 43
19 44
19 59
19 69
19 70
19 71
19 73
19 74
20 31
20 32
20 33
20 37
20 41
20 42
20 43
20 47
20 54
20 55
20 58
20 59
20 60
20 70
21 30
21 32
21 35
21 38
21 40
21 42
21 44
21 48
21 53
21 55
21 57
21 59
21 61
21 71
22 30
22 31
22 36
22 39
22 40
22 41
22 46
22 49
22 53
22 54
22 57
22 58
22 62
22 72
23 5
23 6
23 7
23 10
23 15
23 16
23 17
23 21
23 22
23 28
23 29
23 33
23 43
23 51
23 52
23 58
23 59
23 63
23 73
23 80
24 30
24 35
24 36
24 37
24 40
24 44
24 46
24 47
24 51
24 52
24 58
24 59
24 63
24 73
25 31
25 33
25 36
25 38
25 41
25 43
25 46
25 48
25 50
25 52
25 57
25 59
25 64
25 74
26 32
26 33
26 35
26 39
26 42
26 43
26 44
26 49
26 50
26 51
26 57
26 58
26 65
26 75
27 30
27 33
27 38
27 39
27 40
27 43
27 48
27 49
27 51
27 52
27 54
27 55
27 66
27 76
28 31
28 35
28 37
28 39
28 41
28 44
28 47
28 49
28 50
28 52
28 53
28 55
28 68
28 77
29 32
29 36
29 37
29 38
29 42
29 46
29 47
29 48
29 50
29 51
29 53
29 54
29 69
29 79
30 41
30 42
30 43
30 47
30 50
30 64
30 65
30 68
30 69
30 70
31 40
31 42
31 44
31 48
31 51
31 63
31 65
31 66
31 69
31 71
32 40
32 41
32 46
32 49
32 52
32 63
32 64
32 66
32 68
32 72
33 40
33 44
33 46
33 47
33 53
33 61
33 62
33 68
33 69
33 73
34 2
34 4
34 6
34 8
34 11
34 14
34 16
34 18
34 20
34 22
34 27
34 29
34 35
34 44
34 50
34 52
34 57
34 59
34 64
34 74
35 41
35 43
35 46
35 48
35 54
35 60
35 62
35 66
35 69
35 74
36 42
36 43
36 44
36 49
36 55
36 60
36 61
36 66
36 68
36 75
37 40
37 43
37 48
37 49
37 57
37 61
37 62
37 64
37 65
37 76
38 41
38 44
38 47
38 49
38 58
38 60
38 62
38 63
38 65
38 77
39 42
39 46
39 47
39 48
39 59
39 60
39 61
39 63
39 64
39 79
40 50
40 60
40 74
40 75
40 77
40 79
41 51
41 61
41 73
41 75
41 76
41 79
42 52
42 62
42 73
42 74
42 76
42 77
43 53
43 63
43 71
43 72
43 77
43 79
44 54
44 64
44 70
44 72
44 76
44 79
45 3
45 4
45 5
45 9
45 13
45 14
45 15
45 19
45 20
45 21
45 27
45 28
45 36
45 46
45 50
45 51
45 57
45 58
45 65
45 75
46 55
46 65
46 70
46 71
46 76
46 77
47 57
47 66
47 71
47 72
47 74
47 75
48 58
48 68
48 70
48 72
48 73
48 75
49 59
49 69
49 70
49 71
49 73
49 74
50 61
50 62
50 63
50 66
50 71
50 72
50 73
50 76
51 60
51 62
51 64
51 68
51 70
51 72
51 74
51 77
52 60
52 61
52 65
52 69
52 70
52 71
52 75
52 79
53 60
53 64
53 65
53 66
53 70
53 74
53 75
53 76
54 61
54 63
54 65
54 68
54 71
54 73
54 75
54 77
55 62
55 63
55 64
55 69
55 72
55 73
55 74
55 79
56 4
56 8
56 9
56 10
56 14
56 18
56 19
56 21
56 22
56 25
56 26
56 37
56 47
56 51
56 52
56 54
56 55
56 66
56 76
56 80
57 60
57 63
57 68
57 69
57 70
57 73
57 77
57 79
58 61
58 64
58 66
58 69
58 71
58 74
58 76
58 79
59 62
59 65
59 66
59 68
59 72
59 75
59 76
59 77
60 71
60 72
60 73
60 76
61 70
61 72
61 74
61 77
62 70
62 71
62 75
62 79
63 70
63 74
63 75
63 76
64 71
64 73
64 75
64 77
65 72
65 73
65 74
65 79
66 70
66 73
66 77
66 79
67 2
67 5
67 7
67 9
67 11
67 15
67 17
67 19
67 20
67 22
67 24
67 26
67 38
67 48
67 50
67 52
67 53
67 55
67 68
67 77
68 71
68 74
68 76
68 79
69 72
69 75
69 76
69 77
78 3
78 6
78 7
78 8
78 13
78 16
78 17
78 18
78 20
78 21
78 24
78 25
78 39
78 49
78 50
78 51
78 53
78 54
78 69
78 79
80 11
80 13
80 14
80 17
80 20
80 35
80 36
80 38
80 39
80 40
80 50
80 64
80 65
80 68
80 69
80 70
